8171
8097
6637
2414
9020
10030
9276
9285
6401
7158
1356
4039
2869
2393
6496
6860
2837
2807
8807
3183
4433
3284
5209
3039
4753
724
9641
8706
507
10192
8305
9211
3863
9028
8012
7301
6555
3370
7820
8308
4895
795
7251
1264
4518
3780
8640
8789
7190
5715
2783
